(declare-const c_0 Real)
(declare-const c_1 Real)
(declare-const c_2 Real)
(declare-const c_3 Real)
(declare-const c_4 Real)
(declare-const c_5 Real)
(declare-const c_6 Real)
(declare-const c_7 Real)
(declare-const c_8 Real)
(declare-const c_9 Real)
(declare-const c_10 Real)
(declare-const c_11 Real)
(declare-const c_12 Real)
(declare-const c_13 Real)
(declare-const c_14 Real)
(declare-const c_15 Real)
(declare-const c_16 Real)
(declare-const c_17 Real)
(declare-const c_18 Real)
(declare-const c_19 Real)
(declare-const c_20 Real)
(declare-const c_21 Real)
(declare-const c_22 Real)
(declare-const c_23 Real)
(declare-const c_24 Real)
(declare-const c_25 Real)
(declare-const c_26 Real)
(declare-const c_27 Real)
(declare-const c_28 Real)
(declare-const c_29 Real)
(declare-const s_0 Real)
(declare-const s_1 Real)
(declare-const s_2 Real)
(declare-const s_3 Real)
(declare-const s_4 Real)
(declare-const s_5 Real)
(declare-const s_6 Real)
(declare-const s_7 Real)
(declare-const s_8 Real)
(declare-const s_9 Real)
(declare-const s_10 Real)
(declare-const s_11 Real)
(declare-const s_12 Real)
(declare-const s_13 Real)
(declare-const s_14 Real)
(declare-const s_15 Real)
(declare-const s_16 Real)
(declare-const s_17 Real)
(declare-const s_18 Real)
(declare-const s_19 Real)
(declare-const s_20 Real)
(declare-const s_21 Real)
(declare-const s_22 Real)
(declare-const s_23 Real)
(declare-const s_24 Real)
(declare-const s_25 Real)
(declare-const s_26 Real)
(declare-const s_27 Real)
(declare-const s_28 Real)
(declare-const s_29 Real)
(assert (forall ((q Real) (a Real) (b Real) (olda Real) ) (=> (and (>= (+ (* 1024 1) (* 1 q ) ) 0) (>= (+ (* 1023 1) (* (- 1) q ) ) 0) (>= (+ (* 1024 1) (* 1 a ) ) 0) (>= (+ (* 1023 1) (* (- 1) a ) ) 0) (>= (+ (* 1024 1) (* 1 b ) ) 0) (>= (+ (* 1023 1) (* (- 1) b ) ) 0) (>= (+ (* 1024 1) (* 1 olda ) ) 0) (>= (+ (* 1023 1) (* (- 1) olda ) ) 0) ) (>= (+ (* 1 a b s_2 ) (* 1 a olda s_3 ) (* 1 a q s_4 ) (* 1 a s_1 ) (* 1 a a s_5 ) (* 1 b olda s_7 ) (* 1 b q s_8 ) (* 1 b s_6 ) (* 1 b b s_9 ) (* 1 olda q s_11 ) (* 1 olda s_10 ) (* 1 olda olda s_12 ) (* 1 q s_13 ) (* 1 q q s_14 ) (* 1 s_0 ) ) 0) )))
(assert (forall ((q Real) (a Real) (b Real) (olda Real) ) (=> (and (>= (+ (* 1024 1) (* 1 q ) ) 0) (>= (+ (* 1023 1) (* (- 1) q ) ) 0) (>= (+ (* 1024 1) (* 1 a ) ) 0) (>= (+ (* 1023 1) (* (- 1) a ) ) 0) (>= (+ (* 1024 1) (* 1 b ) ) 0) (>= (+ (* 1023 1) (* (- 1) b ) ) 0) (>= (+ (* 1024 1) (* 1 olda ) ) 0) (>= (+ (* 1023 1) (* (- 1) olda ) ) 0) ) (>= (+ (* 1 a b c_2 ) (* 1 a c_1 ) (* 1 a c_3 olda ) (* 1 a c_4 q ) (* 1 a a c_5 ) (* 1 b c_6 ) (* 1 b c_7 olda ) (* 1 b c_8 q ) (* 1 b b c_9 ) (* 1 c_0 ) (* 1 c_10 olda ) (* 1 c_11 olda q ) (* 1 c_12 olda olda ) (* 1 c_13 q ) (* 1 c_14 q q ) ) 0) )))
(assert (forall ((q Real) (a Real) (b Real) (olda Real) ) (=> (and (>= (+ (* (- 1) 1) (* 1 q ) ) 0) (>= (* 1 1) 0) (>= (+ (* 1 a b s_2 ) (* 1 a olda s_3 ) (* 1 a q s_4 ) (* 1 a s_1 ) (* 1 a a s_5 ) (* 1 b olda s_7 ) (* 1 b q s_8 ) (* 1 b s_6 ) (* 1 b b s_9 ) (* 1 olda q s_11 ) (* 1 olda s_10 ) (* 1 olda olda s_12 ) (* 1 q s_13 ) (* 1 q q s_14 ) (* 1 s_0 ) ) 0) ) (>= (+ (* (- 7) a b s_2 ) (* (- 4) a b s_3 ) (* (- 4) a b s_4 ) (* (- 24) a b s_5 ) (* 3 a b s_7 ) (* 3 a b s_8 ) (* 24 a b s_9 ) (* 1 a q s_11 ) (* 2 a q s_14 ) (* 3 a q s_4 ) (* 4 a q s_8 ) (* 3 a s_1 ) (* 1 a s_10 ) (* (- 1) a s_11 ) (* 1 a s_13 ) (* (- 2) a s_14 ) (* (- 3) a s_4 ) (* 4 a s_6 ) (* (- 4) a s_8 ) (* 1 a a s_11 ) (* 1 a a s_12 ) (* 1 a a s_14 ) (* 12 a a s_2 ) (* 3 a a s_3 ) (* 3 a a s_4 ) (* 9 a a s_5 ) (* 4 a a s_7 ) (* 4 a a s_8 ) (* 16 a a s_9 ) (* (- 4) b q s_4 ) (* 3 b q s_8 ) (* (- 4) b s_1 ) (* 4 b s_4 ) (* 3 b s_6 ) (* (- 3) b s_8 ) (* (- 12) b b s_2 ) (* 16 b b s_5 ) (* 9 b b s_9 ) (* 1 q s_13 ) (* (- 2) q s_14 ) (* 1 q q s_14 ) (* 1 s_0 ) (* (- 1) s_13 ) (* 1 s_14 ) ) 0) )))
(assert (forall ((q Real) (a Real) (b Real) (olda Real) ) (=> (and (>= (+ (* (- 1) 1) (* 1 q ) ) 0) (>= (* 1 1) 0) (>= (+ (* 1 a b s_2 ) (* 1 a olda s_3 ) (* 1 a q s_4 ) (* 1 a s_1 ) (* 1 a a s_5 ) (* 1 b olda s_7 ) (* 1 b q s_8 ) (* 1 b s_6 ) (* 1 b b s_9 ) (* 1 olda q s_11 ) (* 1 olda s_10 ) (* 1 olda olda s_12 ) (* 1 q s_13 ) (* 1 q q s_14 ) (* 1 s_0 ) ) 0) ) (>= (+ (* (- 7) a b c_2 ) (* (- 4) a b c_3 ) (* (- 4) a b c_4 ) (* (- 24) a b c_5 ) (* 3 a b c_7 ) (* 3 a b c_8 ) (* 24 a b c_9 ) (* 3 a c_1 ) (* 1 a c_10 ) (* (- 1) a c_11 ) (* 1 a c_11 q ) (* 1 a c_13 ) (* (- 2) a c_14 ) (* 2 a c_14 q ) (* (- 3) a c_4 ) (* 3 a c_4 q ) (* 4 a c_6 ) (* (- 4) a c_8 ) (* 4 a c_8 q ) (* 1 a a c_11 ) (* 1 a a c_12 ) (* 1 a a c_14 ) (* 12 a a c_2 ) (* 3 a a c_3 ) (* 3 a a c_4 ) (* 9 a a c_5 ) (* 4 a a c_7 ) (* 4 a a c_8 ) (* 16 a a c_9 ) (* (- 4) b c_1 ) (* 4 b c_4 ) (* (- 4) b c_4 q ) (* 3 b c_6 ) (* (- 3) b c_8 ) (* 3 b c_8 q ) (* (- 12) b b c_2 ) (* 16 b b c_5 ) (* 9 b b c_9 ) (* 1 c_0 ) (* (- 1) c_13 ) (* 1 c_13 q ) (* 1 c_14 ) (* (- 2) c_14 q ) (* 1 c_14 q q ) ) 0) )))
(assert (forall ((q Real) (a Real) (b Real) (olda Real) ) (=> (and (>= (+ (* (- 1) 1) (* 1 q ) ) 0) (>= (* 1 1) 0) (>= (+ (* 1 a b s_2 ) (* 1 a olda s_3 ) (* 1 a q s_4 ) (* 1 a s_1 ) (* 1 a a s_5 ) (* 1 b olda s_7 ) (* 1 b q s_8 ) (* 1 b s_6 ) (* 1 b b s_9 ) (* 1 olda q s_11 ) (* 1 olda s_10 ) (* 1 olda olda s_12 ) (* 1 q s_13 ) (* 1 q q s_14 ) (* 1 s_0 ) ) 0) ) (>= (+ (* (- 1) 1) (* 8 a b c_2 ) (* 4 a b c_3 ) (* 4 a b c_4 ) (* 24 a b c_5 ) (* (- 3) a b c_7 ) (* (- 3) a b c_8 ) (* (- 24) a b c_9 ) (* (- 2) a c_1 ) (* (- 1) a c_10 ) (* 1 a c_11 ) (* (- 1) a c_11 q ) (* (- 1) a c_13 ) (* 2 a c_14 ) (* (- 2) a c_14 q ) (* 1 a c_3 olda ) (* 3 a c_4 ) (* (- 2) a c_4 q ) (* (- 4) a c_6 ) (* 4 a c_8 ) (* (- 4) a c_8 q ) (* (- 1) a a c_11 ) (* (- 1) a a c_12 ) (* (- 1) a a c_14 ) (* (- 12) a a c_2 ) (* (- 3) a a c_3 ) (* (- 3) a a c_4 ) (* (- 8) a a c_5 ) (* (- 4) a a c_7 ) (* (- 4) a a c_8 ) (* (- 16) a a c_9 ) (* 4 b c_1 ) (* (- 4) b c_4 ) (* 4 b c_4 q ) (* (- 2) b c_6 ) (* 1 b c_7 olda ) (* 3 b c_8 ) (* (- 2) b c_8 q ) (* 12 b b c_2 ) (* (- 16) b b c_5 ) (* (- 8) b b c_9 ) (* 1 c_10 olda ) (* 1 c_11 olda q ) (* 1 c_12 olda olda ) (* 1 c_13 ) (* (- 1) c_14 ) (* 2 c_14 q ) ) 0) )))
(assert (forall ((q Real) (a Real) (b Real) (olda Real) ) (=> (and (>= (* (- 1) q ) 0) (>= (* 1 1) 0) (>= (+ (* 1 a b s_2 ) (* 1 a olda s_3 ) (* 1 a q s_4 ) (* 1 a s_1 ) (* 1 a a s_5 ) (* 1 b olda s_7 ) (* 1 b q s_8 ) (* 1 b s_6 ) (* 1 b b s_9 ) (* 1 olda q s_11 ) (* 1 olda s_10 ) (* 1 olda olda s_12 ) (* 1 q s_13 ) (* 1 q q s_14 ) (* 1 s_0 ) ) 0) ) (>= (+ (* 1 a b s_17 ) (* 1 a olda s_18 ) (* 1 a q s_19 ) (* 1 a s_16 ) (* 1 a a s_20 ) (* 1 b olda s_22 ) (* 1 b q s_23 ) (* 1 b s_21 ) (* 1 b b s_24 ) (* 1 olda q s_26 ) (* 1 olda s_25 ) (* 1 olda olda s_27 ) (* 1 q s_28 ) (* 1 q q s_29 ) (* 1 s_15 ) ) 0) )))
(assert (forall ((q Real) (a Real) (b Real) (olda Real) ) (=> (and (>= (* (- 1) q ) 0) (>= (* 1 1) 0) (>= (+ (* 1 a b s_2 ) (* 1 a olda s_3 ) (* 1 a q s_4 ) (* 1 a s_1 ) (* 1 a a s_5 ) (* 1 b olda s_7 ) (* 1 b q s_8 ) (* 1 b s_6 ) (* 1 b b s_9 ) (* 1 olda q s_11 ) (* 1 olda s_10 ) (* 1 olda olda s_12 ) (* 1 q s_13 ) (* 1 q q s_14 ) (* 1 s_0 ) ) 0) ) (>= (+ (* 1 a b c_17 ) (* 1 a c_16 ) (* 1 a c_18 olda ) (* 1 a c_19 q ) (* 1 a a c_20 ) (* 1 b c_21 ) (* 1 b c_22 olda ) (* 1 b c_23 q ) (* 1 b b c_24 ) (* 1 c_15 ) (* 1 c_25 olda ) (* 1 c_26 olda q ) (* 1 c_27 olda olda ) (* 1 c_28 q ) (* 1 c_29 q q ) ) 0) )))

(check-sat)
(get-model)
